db/data/24941297329576364522880117212995830900.z3.out
sat
-------------------
225.456312736
